2117963
5	9	253563
9	15	21151
15	3	223221
3	18	238490
18	14	105167
14	7	67784
7	13	61570
13	17	103707
17	4	90145
4	19	53722
19	10	34793
10	11	123742
11	8	50022
8	12	45505
12	16	27808
16	2	20583
2	1	14476
1	6	108023
6	0	35813
0	5	438678
